c Software verification instances generated by
c Calysto static checker. For more information
c contact Domagoj Babic.
c Location in code: /work/benchmarks/SOURCES/gzip-1.2.4/gzip.c:976

p cnf 1270 2585
1 0
-2 0
67 0
-68 0
-69 0
-70 0
-71 0
72 0
-73 0
-74 0
-75 0
-76 0
-77 0
-78 0
-79 0
-80 0
-81 0
-82 0
-83 0
-84 0
-85 0
-86 0
-87 0
-88 0
-89 0
-90 0
-91 0
-92 0
-93 0
-94 0
-95 0
-96 0
-97 0
-98 0
-99 0
-100 0
-101 0
-102 0
-103 0
-104 0
-105 0
-106 0
-107 0
-108 0
-109 0
-110 0
-111 0
-112 0
-113 0
-114 0
-115 0
-116 0
-117 0
-118 0
-119 0
-120 0
-121 0
-122 0
-123 0
-124 0
-125 0
-126 0
-127 0
-128 0
-129 0
-130 0
-196 0
197 0
198 0
199 0
200 0
-201 0
202 0
203 0
204 0
205 0
206 0
207 0
208 0
209 0
210 0
211 0
212 0
213 0
214 0
215 0
216 0
217 0
218 0
219 0
220 0
221 0
222 0
223 0
224 0
225 0
226 0
227 0
228 0
229 0
230 0
231 0
232 0
233 0
234 0
235 0
236 0
237 0
238 0
239 0
240 0
241 0
242 0
243 0
244 0
245 0
246 0
247 0
248 0
249 0
250 0
251 0
252 0
253 0
254 0
255 0
256 0
257 0
258 0
259 0
-262 0
-282 0
517 0
-583 0
584 0
585 0
586 0
587 0
-588 0
589 0
590 0
591 0
592 0
593 0
594 0
595 0
596 0
597 0
598 0
599 0
600 0
601 0
602 0
603 0
604 0
605 0
606 0
607 0
608 0
609 0
610 0
611 0
612 0
613 0
614 0
615 0
616 0
617 0
618 0
619 0
620 0
621 0
622 0
623 0
624 0
625 0
626 0
627 0
628 0
629 0
630 0
631 0
632 0
633 0
634 0
635 0
636 0
637 0
638 0
639 0
640 0
641 0
642 0
643 0
644 0
645 0
646 0
-649 0
-669 0
-906 0
-907 0
-908 0
-909 0
-910 0
-911 0
-912 0
-913 0
-973 0
-974 0
-975 0
-976 0
-977 0
-978 0
-979 0
-980 0
-981 0
-982 0
-983 0
-984 0
-985 0
-986 0
-987 0
-988 0
-989 0
-990 0
-991 0
-992 0
-993 0
-994 0
-995 0
-996 0
-997 0
-998 0
-999 0
-1000 0
-1001 0
-1002 0
-1003 0
-1004 0
-1270 0
-3 260 0
3 -260 0
3 -262 0
-260 261 0
260 -261 0
261 -263 0
-261 263 0
132 260 0
-132 -260 0
4 264 0
-4 -264 0
-4 266 0
4 -266 0
-263 -264 265 0
264 -265 0
263 -265 0
265 266 -267 0
-265 267 0
-266 267 0
133 263 -264 0
133 -263 264 0
-133 263 264 0
-133 -263 -264 0
5 268 0
-5 -268 0
-5 270 0
5 -270 0
-267 -268 269 0
268 -269 0
267 -269 0
269 270 -271 0
-269 271 0
-270 271 0
134 267 -268 0
134 -267 268 0
-134 267 268 0
-134 -267 -268 0
6 272 0
-6 -272 0
-6 274 0
6 -274 0
-271 -272 273 0
272 -273 0
271 -273 0
273 274 -275 0
-273 275 0
-274 275 0
135 271 -272 0
135 -271 272 0
-135 271 272 0
-135 -271 -272 0
7 276 0
-7 -276 0
-7 278 0
7 -278 0
-275 -276 277 0
276 -277 0
275 -277 0
277 278 -279 0
-277 279 0
-278 279 0
136 275 -276 0
136 -275 276 0
-136 275 276 0
-136 -275 -276 0
-8 280 0
8 -280 0
8 -282 0
-279 -280 281 0
280 -281 0
279 -281 0
281 -283 0
-281 283 0
137 279 -280 0
137 -279 280 0
-137 279 280 0
-137 -279 -280 0
9 284 0
-9 -284 0
-9 286 0
9 -286 0
-283 -284 285 0
284 -285 0
283 -285 0
285 286 -287 0
-285 287 0
-286 287 0
138 283 -284 0
138 -283 284 0
-138 283 284 0
-138 -283 -284 0
10 288 0
-10 -288 0
-10 290 0
10 -290 0
-287 -288 289 0
288 -289 0
287 -289 0
289 290 -291 0
-289 291 0
-290 291 0
139 287 -288 0
139 -287 288 0
-139 287 288 0
-139 -287 -288 0
11 292 0
-11 -292 0
-11 294 0
11 -294 0
-291 -292 293 0
292 -293 0
291 -293 0
293 294 -295 0
-293 295 0
-294 295 0
140 291 -292 0
140 -291 292 0
-140 291 292 0
-140 -291 -292 0
12 296 0
-12 -296 0
-12 298 0
12 -298 0
-295 -296 297 0
296 -297 0
295 -297 0
297 298 -299 0
-297 299 0
-298 299 0
141 295 -296 0
141 -295 296 0
-141 295 296 0
-141 -295 -296 0
13 300 0
-13 -300 0
-13 302 0
13 -302 0
-299 -300 301 0
300 -301 0
299 -301 0
301 302 -303 0
-301 303 0
-302 303 0
142 299 -300 0
142 -299 300 0
-142 299 300 0
-142 -299 -300 0
14 304 0
-14 -304 0
-14 306 0
14 -306 0
-303 -304 305 0
304 -305 0
303 -305 0
305 306 -307 0
-305 307 0
-306 307 0
143 303 -304 0
143 -303 304 0
-143 303 304 0
-143 -303 -304 0
15 308 0
-15 -308 0
-15 310 0
15 -310 0
-307 -308 309 0
308 -309 0
307 -309 0
309 310 -311 0
-309 311 0
-310 311 0
144 307 -308 0
144 -307 308 0
-144 307 308 0
-144 -307 -308 0
16 312 0
-16 -312 0
-16 314 0
16 -314 0
-311 -312 313 0
312 -313 0
311 -313 0
313 314 -315 0
-313 315 0
-314 315 0
145 311 -312 0
145 -311 312 0
-145 311 312 0
-145 -311 -312 0
17 316 0
-17 -316 0
-17 318 0
17 -318 0
-315 -316 317 0
316 -317 0
315 -317 0
317 318 -319 0
-317 319 0
-318 319 0
146 315 -316 0
146 -315 316 0
-146 315 316 0
-146 -315 -316 0
18 320 0
-18 -320 0
-18 322 0
18 -322 0
-319 -320 321 0
320 -321 0
319 -321 0
321 322 -323 0
-321 323 0
-322 323 0
147 319 -320 0
147 -319 320 0
-147 319 320 0
-147 -319 -320 0
19 324 0
-19 -324 0
-19 326 0
19 -326 0
-323 -324 325 0
324 -325 0
323 -325 0
325 326 -327 0
-325 327 0
-326 327 0
148 323 -324 0
148 -323 324 0
-148 323 324 0
-148 -323 -324 0
20 328 0
-20 -328 0
-20 330 0
20 -330 0
-327 -328 329 0
328 -329 0
327 -329 0
329 330 -331 0
-329 331 0
-330 331 0
149 327 -328 0
149 -327 328 0
-149 327 328 0
-149 -327 -328 0
21 332 0
-21 -332 0
-21 334 0
21 -334 0
-331 -332 333 0
332 -333 0
331 -333 0
333 334 -335 0
-333 335 0
-334 335 0
150 331 -332 0
150 -331 332 0
-150 331 332 0
-150 -331 -332 0
22 336 0
-22 -336 0
-22 338 0
22 -338 0
-335 -336 337 0
336 -337 0
335 -337 0
337 338 -339 0
-337 339 0
-338 339 0
151 335 -336 0
151 -335 336 0
-151 335 336 0
-151 -335 -336 0
23 340 0
-23 -340 0
-23 342 0
23 -342 0
-339 -340 341 0
340 -341 0
339 -341 0
341 342 -343 0
-341 343 0
-342 343 0
152 339 -340 0
152 -339 340 0
-152 339 340 0
-152 -339 -340 0
24 344 0
-24 -344 0
-24 346 0
24 -346 0
-343 -344 345 0
344 -345 0
343 -345 0
345 346 -347 0
-345 347 0
-346 347 0
153 343 -344 0
153 -343 344 0
-153 343 344 0
-153 -343 -344 0
25 348 0
-25 -348 0
-25 350 0
25 -350 0
-347 -348 349 0
348 -349 0
347 -349 0
349 350 -351 0
-349 351 0
-350 351 0
154 347 -348 0
154 -347 348 0
-154 347 348 0
-154 -347 -348 0
26 352 0
-26 -352 0
-26 354 0
26 -354 0
-351 -352 353 0
352 -353 0
351 -353 0
353 354 -355 0
-353 355 0
-354 355 0
155 351 -352 0
155 -351 352 0
-155 351 352 0
-155 -351 -352 0
27 356 0
-27 -356 0
-27 358 0
27 -358 0
-355 -356 357 0
356 -357 0
355 -357 0
357 358 -359 0
-357 359 0
-358 359 0
156 355 -356 0
156 -355 356 0
-156 355 356 0
-156 -355 -356 0
28 360 0
-28 -360 0
-28 362 0
28 -362 0
-359 -360 361 0
360 -361 0
359 -361 0
361 362 -363 0
-361 363 0
-362 363 0
157 359 -360 0
157 -359 360 0
-157 359 360 0
-157 -359 -360 0
29 364 0
-29 -364 0
-29 366 0
29 -366 0
-363 -364 365 0
364 -365 0
363 -365 0
365 366 -367 0
-365 367 0
-366 367 0
158 363 -364 0
158 -363 364 0
-158 363 364 0
-158 -363 -364 0
30 368 0
-30 -368 0
-30 370 0
30 -370 0
-367 -368 369 0
368 -369 0
367 -369 0
369 370 -371 0
-369 371 0
-370 371 0
159 367 -368 0
159 -367 368 0
-159 367 368 0
-159 -367 -368 0
31 372 0
-31 -372 0
-31 374 0
31 -374 0
-371 -372 373 0
372 -373 0
371 -373 0
373 374 -375 0
-373 375 0
-374 375 0
160 371 -372 0
160 -371 372 0
-160 371 372 0
-160 -371 -372 0
32 376 0
-32 -376 0
-32 378 0
32 -378 0
-375 -376 377 0
376 -377 0
375 -377 0
377 378 -379 0
-377 379 0
-378 379 0
161 375 -376 0
161 -375 376 0
-161 375 376 0
-161 -375 -376 0
33 380 0
-33 -380 0
-33 382 0
33 -382 0
-379 -380 381 0
380 -381 0
379 -381 0
381 382 -383 0
-381 383 0
-382 383 0
162 379 -380 0
162 -379 380 0
-162 379 380 0
-162 -379 -380 0
34 384 0
-34 -384 0
-34 386 0
34 -386 0
-383 -384 385 0
384 -385 0
383 -385 0
385 386 -387 0
-385 387 0
-386 387 0
163 383 -384 0
163 -383 384 0
-163 383 384 0
-163 -383 -384 0
35 388 0
-35 -388 0
-35 390 0
35 -390 0
-387 -388 389 0
388 -389 0
387 -389 0
389 390 -391 0
-389 391 0
-390 391 0
164 387 -388 0
164 -387 388 0
-164 387 388 0
-164 -387 -388 0
36 392 0
-36 -392 0
-36 394 0
36 -394 0
-391 -392 393 0
392 -393 0
391 -393 0
393 394 -395 0
-393 395 0
-394 395 0
165 391 -392 0
165 -391 392 0
-165 391 392 0
-165 -391 -392 0
37 396 0
-37 -396 0
-37 398 0
37 -398 0
-395 -396 397 0
396 -397 0
395 -397 0
397 398 -399 0
-397 399 0
-398 399 0
166 395 -396 0
166 -395 396 0
-166 395 396 0
-166 -395 -396 0
38 400 0
-38 -400 0
-38 402 0
38 -402 0
-399 -400 401 0
400 -401 0
399 -401 0
401 402 -403 0
-401 403 0
-402 403 0
167 399 -400 0
167 -399 400 0
-167 399 400 0
-167 -399 -400 0
39 404 0
-39 -404 0
-39 406 0
39 -406 0
-403 -404 405 0
404 -405 0
403 -405 0
405 406 -407 0
-405 407 0
-406 407 0
168 403 -404 0
168 -403 404 0
-168 403 404 0
-168 -403 -404 0
40 408 0
-40 -408 0
-40 410 0
40 -410 0
-407 -408 409 0
408 -409 0
407 -409 0
409 410 -411 0
-409 411 0
-410 411 0
169 407 -408 0
169 -407 408 0
-169 407 408 0
-169 -407 -408 0
41 412 0
-41 -412 0
-41 414 0
41 -414 0
-411 -412 413 0
412 -413 0
411 -413 0
413 414 -415 0
-413 415 0
-414 415 0
170 411 -412 0
170 -411 412 0
-170 411 412 0
-170 -411 -412 0
42 416 0
-42 -416 0
-42 418 0
42 -418 0
-415 -416 417 0
416 -417 0
415 -417 0
417 418 -419 0
-417 419 0
-418 419 0
171 415 -416 0
171 -415 416 0
-171 415 416 0
-171 -415 -416 0
43 420 0
-43 -420 0
-43 422 0
43 -422 0
-419 -420 421 0
420 -421 0
419 -421 0
421 422 -423 0
-421 423 0
-422 423 0
172 419 -420 0
172 -419 420 0
-172 419 420 0
-172 -419 -420 0
44 424 0
-44 -424 0
-44 426 0
44 -426 0
-423 -424 425 0
424 -425 0
423 -425 0
425 426 -427 0
-425 427 0
-426 427 0
173 423 -424 0
173 -423 424 0
-173 423 424 0
-173 -423 -424 0
45 428 0
-45 -428 0
-45 430 0
45 -430 0
-427 -428 429 0
428 -429 0
427 -429 0
429 430 -431 0
-429 431 0
-430 431 0
174 427 -428 0
174 -427 428 0
-174 427 428 0
-174 -427 -428 0
46 432 0
-46 -432 0
-46 434 0
46 -434 0
-431 -432 433 0
432 -433 0
431 -433 0
433 434 -435 0
-433 435 0
-434 435 0
175 431 -432 0
175 -431 432 0
-175 431 432 0
-175 -431 -432 0
47 436 0
-47 -436 0
-47 438 0
47 -438 0
-435 -436 437 0
436 -437 0
435 -437 0
437 438 -439 0
-437 439 0
-438 439 0
176 435 -436 0
176 -435 436 0
-176 435 436 0
-176 -435 -436 0
48 440 0
-48 -440 0
-48 442 0
48 -442 0
-439 -440 441 0
440 -441 0
439 -441 0
441 442 -443 0
-441 443 0
-442 443 0
177 439 -440 0
177 -439 440 0
-177 439 440 0
-177 -439 -440 0
49 444 0
-49 -444 0
-49 446 0
49 -446 0
-443 -444 445 0
444 -445 0
443 -445 0
445 446 -447 0
-445 447 0
-446 447 0
178 443 -444 0
178 -443 444 0
-178 443 444 0
-178 -443 -444 0
50 448 0
-50 -448 0
-50 450 0
50 -450 0
-447 -448 449 0
448 -449 0
447 -449 0
449 450 -451 0
-449 451 0
-450 451 0
179 447 -448 0
179 -447 448 0
-179 447 448 0
-179 -447 -448 0
51 452 0
-51 -452 0
-51 454 0
51 -454 0
-451 -452 453 0
452 -453 0
451 -453 0
453 454 -455 0
-453 455 0
-454 455 0
180 451 -452 0
180 -451 452 0
-180 451 452 0
-180 -451 -452 0
52 456 0
-52 -456 0
-52 458 0
52 -458 0
-455 -456 457 0
456 -457 0
455 -457 0
457 458 -459 0
-457 459 0
-458 459 0
181 455 -456 0
181 -455 456 0
-181 455 456 0
-181 -455 -456 0
53 460 0
-53 -460 0
-53 462 0
53 -462 0
-459 -460 461 0
460 -461 0
459 -461 0
461 462 -463 0
-461 463 0
-462 463 0
182 459 -460 0
182 -459 460 0
-182 459 460 0
-182 -459 -460 0
54 464 0
-54 -464 0
-54 466 0
54 -466 0
-463 -464 465 0
464 -465 0
463 -465 0
465 466 -467 0
-465 467 0
-466 467 0
183 463 -464 0
183 -463 464 0
-183 463 464 0
-183 -463 -464 0
55 468 0
-55 -468 0
-55 470 0
55 -470 0
-467 -468 469 0
468 -469 0
467 -469 0
469 470 -471 0
-469 471 0
-470 471 0
184 467 -468 0
184 -467 468 0
-184 467 468 0
-184 -467 -468 0
56 472 0
-56 -472 0
-56 474 0
56 -474 0
-471 -472 473 0
472 -473 0
471 -473 0
473 474 -475 0
-473 475 0
-474 475 0
185 471 -472 0
185 -471 472 0
-185 471 472 0
-185 -471 -472 0
57 476 0
-57 -476 0
-57 478 0
57 -478 0
-475 -476 477 0
476 -477 0
475 -477 0
477 478 -479 0
-477 479 0
-478 479 0
186 475 -476 0
186 -475 476 0
-186 475 476 0
-186 -475 -476 0
58 480 0
-58 -480 0
-58 482 0
58 -482 0
-479 -480 481 0
480 -481 0
479 -481 0
481 482 -483 0
-481 483 0
-482 483 0
187 479 -480 0
187 -479 480 0
-187 479 480 0
-187 -479 -480 0
59 484 0
-59 -484 0
-59 486 0
59 -486 0
-483 -484 485 0
484 -485 0
483 -485 0
485 486 -487 0
-485 487 0
-486 487 0
188 483 -484 0
188 -483 484 0
-188 483 484 0
-188 -483 -484 0
60 488 0
-60 -488 0
-60 490 0
60 -490 0
-487 -488 489 0
488 -489 0
487 -489 0
489 490 -491 0
-489 491 0
-490 491 0
189 487 -488 0
189 -487 488 0
-189 487 488 0
-189 -487 -488 0
61 492 0
-61 -492 0
-61 494 0
61 -494 0
-491 -492 493 0
492 -493 0
491 -493 0
493 494 -495 0
-493 495 0
-494 495 0
190 491 -492 0
190 -491 492 0
-190 491 492 0
-190 -491 -492 0
62 496 0
-62 -496 0
-62 498 0
62 -498 0
-495 -496 497 0
496 -497 0
495 -497 0
497 498 -499 0
-497 499 0
-498 499 0
191 495 -496 0
191 -495 496 0
-191 495 496 0
-191 -495 -496 0
63 500 0
-63 -500 0
-63 502 0
63 -502 0
-499 -500 501 0
500 -501 0
499 -501 0
501 502 -503 0
-501 503 0
-502 503 0
192 499 -500 0
192 -499 500 0
-192 499 500 0
-192 -499 -500 0
64 504 0
-64 -504 0
-64 506 0
64 -506 0
-503 -504 505 0
504 -505 0
503 -505 0
505 506 -507 0
-505 507 0
-506 507 0
193 503 -504 0
193 -503 504 0
-193 503 504 0
-193 -503 -504 0
65 508 0
-65 -508 0
-65 510 0
65 -510 0
-507 -508 509 0
508 -509 0
507 -509 0
509 510 -511 0
-509 511 0
-510 511 0
194 507 -508 0
194 -507 508 0
-194 507 508 0
-194 -507 -508 0
66 512 0
-66 -512 0
-66 514 0
66 -514 0
-511 -512 513 0
512 -513 0
511 -513 0
513 514 -515 0
-513 515 0
-514 515 0
195 511 -512 0
195 -511 512 0
-195 511 512 0
-195 -511 -512 0
511 -515 516 0
-511 515 516 0
511 515 -516 0
-511 -515 -516 0
131 195 -516 0
131 -195 516 0
-131 195 516 0
-131 -195 -516 0
-3 647 0
3 -647 0
3 -649 0
-647 648 0
647 -648 0
648 -650 0
-648 650 0
519 647 0
-519 -647 0
4 651 0
-4 -651 0
-4 653 0
4 -653 0
-650 -651 652 0
651 -652 0
650 -652 0
652 653 -654 0
-652 654 0
-653 654 0
520 650 -651 0
520 -650 651 0
-520 650 651 0
-520 -650 -651 0
5 655 0
-5 -655 0
-5 657 0
5 -657 0
-654 -655 656 0
655 -656 0
654 -656 0
656 657 -658 0
-656 658 0
-657 658 0
521 654 -655 0
521 -654 655 0
-521 654 655 0
-521 -654 -655 0
6 659 0
-6 -659 0
-6 661 0
6 -661 0
-658 -659 660 0
659 -660 0
658 -660 0
660 661 -662 0
-660 662 0
-661 662 0
522 658 -659 0
522 -658 659 0
-522 658 659 0
-522 -658 -659 0
7 663 0
-7 -663 0
-7 665 0
7 -665 0
-662 -663 664 0
663 -664 0
662 -664 0
664 665 -666 0
-664 666 0
-665 666 0
523 662 -663 0
523 -662 663 0
-523 662 663 0
-523 -662 -663 0
-8 667 0
8 -667 0
8 -669 0
-666 -667 668 0
667 -668 0
666 -668 0
668 -670 0
-668 670 0
524 666 -667 0
524 -666 667 0
-524 666 667 0
-524 -666 -667 0
9 671 0
-9 -671 0
-9 673 0
9 -673 0
-670 -671 672 0
671 -672 0
670 -672 0
672 673 -674 0
-672 674 0
-673 674 0
525 670 -671 0
525 -670 671 0
-525 670 671 0
-525 -670 -671 0
10 675 0
-10 -675 0
-10 677 0
10 -677 0
-674 -675 676 0
675 -676 0
674 -676 0
676 677 -678 0
-676 678 0
-677 678 0
526 674 -675 0
526 -674 675 0
-526 674 675 0
-526 -674 -675 0
11 679 0
-11 -679 0
-11 681 0
11 -681 0
-678 -679 680 0
679 -680 0
678 -680 0
680 681 -682 0
-680 682 0
-681 682 0
527 678 -679 0
527 -678 679 0
-527 678 679 0
-527 -678 -679 0
12 683 0
-12 -683 0
-12 685 0
12 -685 0
-682 -683 684 0
683 -684 0
682 -684 0
684 685 -686 0
-684 686 0
-685 686 0
528 682 -683 0
528 -682 683 0
-528 682 683 0
-528 -682 -683 0
13 687 0
-13 -687 0
-13 689 0
13 -689 0
-686 -687 688 0
687 -688 0
686 -688 0
688 689 -690 0
-688 690 0
-689 690 0
529 686 -687 0
529 -686 687 0
-529 686 687 0
-529 -686 -687 0
14 691 0
-14 -691 0
-14 693 0
14 -693 0
-690 -691 692 0
691 -692 0
690 -692 0
692 693 -694 0
-692 694 0
-693 694 0
530 690 -691 0
530 -690 691 0
-530 690 691 0
-530 -690 -691 0
15 695 0
-15 -695 0
-15 697 0
15 -697 0
-694 -695 696 0
695 -696 0
694 -696 0
696 697 -698 0
-696 698 0
-697 698 0
531 694 -695 0
531 -694 695 0
-531 694 695 0
-531 -694 -695 0
16 699 0
-16 -699 0
-16 701 0
16 -701 0
-698 -699 700 0
699 -700 0
698 -700 0
700 701 -702 0
-700 702 0
-701 702 0
532 698 -699 0
532 -698 699 0
-532 698 699 0
-532 -698 -699 0
17 703 0
-17 -703 0
-17 705 0
17 -705 0
-702 -703 704 0
703 -704 0
702 -704 0
704 705 -706 0
-704 706 0
-705 706 0
533 702 -703 0
533 -702 703 0
-533 702 703 0
-533 -702 -703 0
18 707 0
-18 -707 0
-18 709 0
18 -709 0
-706 -707 708 0
707 -708 0
706 -708 0
708 709 -710 0
-708 710 0
-709 710 0
534 706 -707 0
534 -706 707 0
-534 706 707 0
-534 -706 -707 0
19 711 0
-19 -711 0
-19 713 0
19 -713 0
-710 -711 712 0
711 -712 0
710 -712 0
712 713 -714 0
-712 714 0
-713 714 0
535 710 -711 0
535 -710 711 0
-535 710 711 0
-535 -710 -711 0
20 715 0
-20 -715 0
-20 717 0
20 -717 0
-714 -715 716 0
715 -716 0
714 -716 0
716 717 -718 0
-716 718 0
-717 718 0
536 714 -715 0
536 -714 715 0
-536 714 715 0
-536 -714 -715 0
21 719 0
-21 -719 0
-21 721 0
21 -721 0
-718 -719 720 0
719 -720 0
718 -720 0
720 721 -722 0
-720 722 0
-721 722 0
537 718 -719 0
537 -718 719 0
-537 718 719 0
-537 -718 -719 0
22 723 0
-22 -723 0
-22 725 0
22 -725 0
-722 -723 724 0
723 -724 0
722 -724 0
724 725 -726 0
-724 726 0
-725 726 0
538 722 -723 0
538 -722 723 0
-538 722 723 0
-538 -722 -723 0
23 727 0
-23 -727 0
-23 729 0
23 -729 0
-726 -727 728 0
727 -728 0
726 -728 0
728 729 -730 0
-728 730 0
-729 730 0
539 726 -727 0
539 -726 727 0
-539 726 727 0
-539 -726 -727 0
24 731 0
-24 -731 0
-24 733 0
24 -733 0
-730 -731 732 0
731 -732 0
730 -732 0
732 733 -734 0
-732 734 0
-733 734 0
540 730 -731 0
540 -730 731 0
-540 730 731 0
-540 -730 -731 0
25 735 0
-25 -735 0
-25 737 0
25 -737 0
-734 -735 736 0
735 -736 0
734 -736 0
736 737 -738 0
-736 738 0
-737 738 0
541 734 -735 0
541 -734 735 0
-541 734 735 0
-541 -734 -735 0
26 739 0
-26 -739 0
-26 741 0
26 -741 0
-738 -739 740 0
739 -740 0
738 -740 0
740 741 -742 0
-740 742 0
-741 742 0
542 738 -739 0
542 -738 739 0
-542 738 739 0
-542 -738 -739 0
27 743 0
-27 -743 0
-27 745 0
27 -745 0
-742 -743 744 0
743 -744 0
742 -744 0
744 745 -746 0
-744 746 0
-745 746 0
543 742 -743 0
543 -742 743 0
-543 742 743 0
-543 -742 -743 0
28 747 0
-28 -747 0
-28 749 0
28 -749 0
-746 -747 748 0
747 -748 0
746 -748 0
748 749 -750 0
-748 750 0
-749 750 0
544 746 -747 0
544 -746 747 0
-544 746 747 0
-544 -746 -747 0
29 751 0
-29 -751 0
-29 753 0
29 -753 0
-750 -751 752 0
751 -752 0
750 -752 0
752 753 -754 0
-752 754 0
-753 754 0
545 750 -751 0
545 -750 751 0
-545 750 751 0
-545 -750 -751 0
30 755 0
-30 -755 0
-30 757 0
30 -757 0
-754 -755 756 0
755 -756 0
754 -756 0
756 757 -758 0
-756 758 0
-757 758 0
546 754 -755 0
546 -754 755 0
-546 754 755 0
-546 -754 -755 0
31 759 0
-31 -759 0
-31 761 0
31 -761 0
-758 -759 760 0
759 -760 0
758 -760 0
760 761 -762 0
-760 762 0
-761 762 0
547 758 -759 0
547 -758 759 0
-547 758 759 0
-547 -758 -759 0
32 763 0
-32 -763 0
-32 765 0
32 -765 0
-762 -763 764 0
763 -764 0
762 -764 0
764 765 -766 0
-764 766 0
-765 766 0
548 762 -763 0
548 -762 763 0
-548 762 763 0
-548 -762 -763 0
33 767 0
-33 -767 0
-33 769 0
33 -769 0
-766 -767 768 0
767 -768 0
766 -768 0
768 769 -770 0
-768 770 0
-769 770 0
549 766 -767 0
549 -766 767 0
-549 766 767 0
-549 -766 -767 0
34 771 0
-34 -771 0
-34 773 0
34 -773 0
-770 -771 772 0
771 -772 0
770 -772 0
772 773 -774 0
-772 774 0
-773 774 0
550 770 -771 0
550 -770 771 0
-550 770 771 0
-550 -770 -771 0
35 775 0
-35 -775 0
-35 777 0
35 -777 0
-774 -775 776 0
775 -776 0
774 -776 0
776 777 -778 0
-776 778 0
-777 778 0
551 774 -775 0
551 -774 775 0
-551 774 775 0
-551 -774 -775 0
36 779 0
-36 -779 0
-36 781 0
36 -781 0
-778 -779 780 0
779 -780 0
778 -780 0
780 781 -782 0
-780 782 0
-781 782 0
552 778 -779 0
552 -778 779 0
-552 778 779 0
-552 -778 -779 0
37 783 0
-37 -783 0
-37 785 0
37 -785 0
-782 -783 784 0
783 -784 0
782 -784 0
784 785 -786 0
-784 786 0
-785 786 0
553 782 -783 0
553 -782 783 0
-553 782 783 0
-553 -782 -783 0
38 787 0
-38 -787 0
-38 789 0
38 -789 0
-786 -787 788 0
787 -788 0
786 -788 0
788 789 -790 0
-788 790 0
-789 790 0
554 786 -787 0
554 -786 787 0
-554 786 787 0
-554 -786 -787 0
39 791 0
-39 -791 0
-39 793 0
39 -793 0
-790 -791 792 0
791 -792 0
790 -792 0
792 793 -794 0
-792 794 0
-793 794 0
555 790 -791 0
555 -790 791 0
-555 790 791 0
-555 -790 -791 0
40 795 0
-40 -795 0
-40 797 0
40 -797 0
-794 -795 796 0
795 -796 0
794 -796 0
796 797 -798 0
-796 798 0
-797 798 0
556 794 -795 0
556 -794 795 0
-556 794 795 0
-556 -794 -795 0
41 799 0
-41 -799 0
-41 801 0
41 -801 0
-798 -799 800 0
799 -800 0
798 -800 0
800 801 -802 0
-800 802 0
-801 802 0
557 798 -799 0
557 -798 799 0
-557 798 799 0
-557 -798 -799 0
42 803 0
-42 -803 0
-42 805 0
42 -805 0
-802 -803 804 0
803 -804 0
802 -804 0
804 805 -806 0
-804 806 0
-805 806 0
558 802 -803 0
558 -802 803 0
-558 802 803 0
-558 -802 -803 0
43 807 0
-43 -807 0
-43 809 0
43 -809 0
-806 -807 808 0
807 -808 0
806 -808 0
808 809 -810 0
-808 810 0
-809 810 0
559 806 -807 0
559 -806 807 0
-559 806 807 0
-559 -806 -807 0
44 811 0
-44 -811 0
-44 813 0
44 -813 0
-810 -811 812 0
811 -812 0
810 -812 0
812 813 -814 0
-812 814 0
-813 814 0
560 810 -811 0
560 -810 811 0
-560 810 811 0
-560 -810 -811 0
45 815 0
-45 -815 0
-45 817 0
45 -817 0
-814 -815 816 0
815 -816 0
814 -816 0
816 817 -818 0
-816 818 0
-817 818 0
561 814 -815 0
561 -814 815 0
-561 814 815 0
-561 -814 -815 0
46 819 0
-46 -819 0
-46 821 0
46 -821 0
-818 -819 820 0
819 -820 0
818 -820 0
820 821 -822 0
-820 822 0
-821 822 0
562 818 -819 0
562 -818 819 0
-562 818 819 0
-562 -818 -819 0
47 823 0
-47 -823 0
-47 825 0
47 -825 0
-822 -823 824 0
823 -824 0
822 -824 0
824 825 -826 0
-824 826 0
-825 826 0
563 822 -823 0
563 -822 823 0
-563 822 823 0
-563 -822 -823 0
48 827 0
-48 -827 0
-48 829 0
48 -829 0
-826 -827 828 0
827 -828 0
826 -828 0
828 829 -830 0
-828 830 0
-829 830 0
564 826 -827 0
564 -826 827 0
-564 826 827 0
-564 -826 -827 0
49 831 0
-49 -831 0
-49 833 0
49 -833 0
-830 -831 832 0
831 -832 0
830 -832 0
832 833 -834 0
-832 834 0
-833 834 0
565 830 -831 0
565 -830 831 0
-565 830 831 0
-565 -830 -831 0
50 835 0
-50 -835 0
-50 837 0
50 -837 0
-834 -835 836 0
835 -836 0
834 -836 0
836 837 -838 0
-836 838 0
-837 838 0
566 834 -835 0
566 -834 835 0
-566 834 835 0
-566 -834 -835 0
51 839 0
-51 -839 0
-51 841 0
51 -841 0
-838 -839 840 0
839 -840 0
838 -840 0
840 841 -842 0
-840 842 0
-841 842 0
567 838 -839 0
567 -838 839 0
-567 838 839 0
-567 -838 -839 0
52 843 0
-52 -843 0
-52 845 0
52 -845 0
-842 -843 844 0
843 -844 0
842 -844 0
844 845 -846 0
-844 846 0
-845 846 0
568 842 -843 0
568 -842 843 0
-568 842 843 0
-568 -842 -843 0
53 847 0
-53 -847 0
-53 849 0
53 -849 0
-846 -847 848 0
847 -848 0
846 -848 0
848 849 -850 0
-848 850 0
-849 850 0
569 846 -847 0
569 -846 847 0
-569 846 847 0
-569 -846 -847 0
54 851 0
-54 -851 0
-54 853 0
54 -853 0
-850 -851 852 0
851 -852 0
850 -852 0
852 853 -854 0
-852 854 0
-853 854 0
570 850 -851 0
570 -850 851 0
-570 850 851 0
-570 -850 -851 0
55 855 0
-55 -855 0
-55 857 0
55 -857 0
-854 -855 856 0
855 -856 0
854 -856 0
856 857 -858 0
-856 858 0
-857 858 0
571 854 -855 0
571 -854 855 0
-571 854 855 0
-571 -854 -855 0
56 859 0
-56 -859 0
-56 861 0
56 -861 0
-858 -859 860 0
859 -860 0
858 -860 0
860 861 -862 0
-860 862 0
-861 862 0
572 858 -859 0
572 -858 859 0
-572 858 859 0
-572 -858 -859 0
57 863 0
-57 -863 0
-57 865 0
57 -865 0
-862 -863 864 0
863 -864 0
862 -864 0
864 865 -866 0
-864 866 0
-865 866 0
573 862 -863 0
573 -862 863 0
-573 862 863 0
-573 -862 -863 0
58 867 0
-58 -867 0
-58 869 0
58 -869 0
-866 -867 868 0
867 -868 0
866 -868 0
868 869 -870 0
-868 870 0
-869 870 0
574 866 -867 0
574 -866 867 0
-574 866 867 0
-574 -866 -867 0
59 871 0
-59 -871 0
-59 873 0
59 -873 0
-870 -871 872 0
871 -872 0
870 -872 0
872 873 -874 0
-872 874 0
-873 874 0
575 870 -871 0
575 -870 871 0
-575 870 871 0
-575 -870 -871 0
60 875 0
-60 -875 0
-60 877 0
60 -877 0
-874 -875 876 0
875 -876 0
874 -876 0
876 877 -878 0
-876 878 0
-877 878 0
576 874 -875 0
576 -874 875 0
-576 874 875 0
-576 -874 -875 0
61 879 0
-61 -879 0
-61 881 0
61 -881 0
-878 -879 880 0
879 -880 0
878 -880 0
880 881 -882 0
-880 882 0
-881 882 0
577 878 -879 0
577 -878 879 0
-577 878 879 0
-577 -878 -879 0
62 883 0
-62 -883 0
-62 885 0
62 -885 0
-882 -883 884 0
883 -884 0
882 -884 0
884 885 -886 0
-884 886 0
-885 886 0
578 882 -883 0
578 -882 883 0
-578 882 883 0
-578 -882 -883 0
63 887 0
-63 -887 0
-63 889 0
63 -889 0
-886 -887 888 0
887 -888 0
886 -888 0
888 889 -890 0
-888 890 0
-889 890 0
579 886 -887 0
579 -886 887 0
-579 886 887 0
-579 -886 -887 0
64 891 0
-64 -891 0
-64 893 0
64 -893 0
-890 -891 892 0
891 -892 0
890 -892 0
892 893 -894 0
-892 894 0
-893 894 0
580 890 -891 0
580 -890 891 0
-580 890 891 0
-580 -890 -891 0
65 895 0
-65 -895 0
-65 897 0
65 -897 0
-894 -895 896 0
895 -896 0
894 -896 0
896 897 -898 0
-896 898 0
-897 898 0
581 894 -895 0
581 -894 895 0
-581 894 895 0
-581 -894 -895 0
66 899 0
-66 -899 0
-66 901 0
66 -901 0
-898 -899 900 0
899 -900 0
898 -900 0
900 901 -902 0
-900 902 0
-901 902 0
582 898 -899 0
582 -898 899 0
-582 898 899 0
-582 -898 -899 0
898 -902 903 0
-898 902 903 0
898 902 -903 0
-898 -902 -903 0
518 582 903 0
518 -582 -903 0
-518 -582 903 0
-518 582 -903 0
-518 904 0
518 -904 0
-131 905 0
131 -904 905 0
131 904 -905 0
914 924 0
-914 -924 0
915 925 0
-915 -925 0
916 926 0
-916 -926 0
917 927 0
-917 -927 0
918 928 0
-918 -928 0
919 929 0
-919 -929 0
920 930 0
-920 -930 0
921 931 0
-921 -931 0
-924 932 0
924 -932 0
-925 -932 933 0
932 -933 0
925 -933 0
-926 -933 934 0
933 -934 0
926 -934 0
-927 -934 935 0
934 -935 0
927 -935 0
-928 -935 936 0
935 -936 0
928 -936 0
-929 -936 937 0
936 -937 0
929 -937 0
-930 -937 938 0
937 -938 0
930 -938 0
-931 -938 939 0
938 -939 0
931 -939 0
-923 939 0
923 -939 0
922 923 0
-922 -923 0
-922 940 0
922 -940 0
941 1007 0
-941 -1007 0
942 1008 0
-942 -1008 0
943 1009 0
-943 -1009 0
944 1010 0
-944 -1010 0
945 1011 0
-945 -1011 0
946 1012 0
-946 -1012 0
947 1013 0
-947 -1013 0
948 1014 0
-948 -1014 0
949 1015 0
-949 -1015 0
950 1016 0
-950 -1016 0
951 1017 0
-951 -1017 0
952 1018 0
-952 -1018 0
953 1019 0
-953 -1019 0
954 1020 0
-954 -1020 0
955 1021 0
-955 -1021 0
956 1022 0
-956 -1022 0
957 1023 0
-957 -1023 0
958 1024 0
-958 -1024 0
959 1025 0
-959 -1025 0
960 1026 0
-960 -1026 0
961 1027 0
-961 -1027 0
962 1028 0
-962 -1028 0
963 1029 0
-963 -1029 0
964 1030 0
-964 -1030 0
965 1031 0
-965 -1031 0
966 1032 0
-966 -1032 0
967 1033 0
-967 -1033 0
968 1034 0
-968 -1034 0
969 1035 0
-969 -1035 0
970 1036 0
-970 -1036 0
971 1037 0
-971 -1037 0
972 1038 0
-972 -1038 0
-1007 1039 0
1007 -1039 0
-1008 -1039 1040 0
1039 -1040 0
1008 -1040 0
-1009 -1040 1041 0
1040 -1041 0
1009 -1041 0
-1010 -1041 1042 0
1041 -1042 0
1010 -1042 0
-1011 -1042 1043 0
1042 -1043 0
1011 -1043 0
-1012 -1043 1044 0
1043 -1044 0
1012 -1044 0
-1013 -1044 1045 0
1044 -1045 0
1013 -1045 0
-1014 -1045 1046 0
1045 -1046 0
1014 -1046 0
-1015 -1046 1047 0
1046 -1047 0
1015 -1047 0
-1016 -1047 1048 0
1047 -1048 0
1016 -1048 0
-1017 -1048 1049 0
1048 -1049 0
1017 -1049 0
-1018 -1049 1050 0
1049 -1050 0
1018 -1050 0
-1019 -1050 1051 0
1050 -1051 0
1019 -1051 0
-1020 -1051 1052 0
1051 -1052 0
1020 -1052 0
-1021 -1052 1053 0
1052 -1053 0
1021 -1053 0
-1022 -1053 1054 0
1053 -1054 0
1022 -1054 0
-1023 -1054 1055 0
1054 -1055 0
1023 -1055 0
-1024 -1055 1056 0
1055 -1056 0
1024 -1056 0
-1025 -1056 1057 0
1056 -1057 0
1025 -1057 0
-1026 -1057 1058 0
1057 -1058 0
1026 -1058 0
-1027 -1058 1059 0
1058 -1059 0
1027 -1059 0
-1028 -1059 1060 0
1059 -1060 0
1028 -1060 0
-1029 -1060 1061 0
1060 -1061 0
1029 -1061 0
-1030 -1061 1062 0
1061 -1062 0
1030 -1062 0
-1031 -1062 1063 0
1062 -1063 0
1031 -1063 0
-1032 -1063 1064 0
1063 -1064 0
1032 -1064 0
-1033 -1064 1065 0
1064 -1065 0
1033 -1065 0
-1034 -1065 1066 0
1065 -1066 0
1034 -1066 0
-1035 -1066 1067 0
1066 -1067 0
1035 -1067 0
-1036 -1067 1068 0
1067 -1068 0
1036 -1068 0
-1037 -1068 1069 0
1068 -1069 0
1037 -1069 0
-1038 -1069 1070 0
1069 -1070 0
1038 -1070 0
-1006 1070 0
1006 -1070 0
1005 1006 0
-1005 -1006 0
-940 -1005 1071 0
940 -1071 0
1005 -1071 0
1072 1106 0
-1072 -1106 0
1073 1107 0
-1073 -1107 0
1074 1108 0
-1074 -1108 0
1075 1109 0
-1075 -1109 0
1076 1110 0
-1076 -1110 0
1077 1111 0
-1077 -1111 0
1078 1112 0
-1078 -1112 0
1079 1113 0
-1079 -1113 0
1080 1114 0
-1080 -1114 0
1081 1115 0
-1081 -1115 0
1082 1116 0
-1082 -1116 0
1083 1117 0
-1083 -1117 0
1084 1118 0
-1084 -1118 0
1085 1119 0
-1085 -1119 0
1086 1120 0
-1086 -1120 0
1087 1121 0
-1087 -1121 0
1088 1122 0
-1088 -1122 0
1089 1123 0
-1089 -1123 0
1090 1124 0
-1090 -1124 0
1091 1125 0
-1091 -1125 0
1092 1126 0
-1092 -1126 0
1093 1127 0
-1093 -1127 0
1094 1128 0
-1094 -1128 0
1095 1129 0
-1095 -1129 0
1096 1130 0
-1096 -1130 0
1097 1131 0
-1097 -1131 0
1098 1132 0
-1098 -1132 0
1099 1133 0
-1099 -1133 0
1100 1134 0
-1100 -1134 0
1101 1135 0
-1101 -1135 0
1102 1136 0
-1102 -1136 0
1103 1137 0
-1103 -1137 0
-1106 1138 0
1106 -1138 0
-1107 -1138 1139 0
1138 -1139 0
1107 -1139 0
-1108 -1139 1140 0
1139 -1140 0
1108 -1140 0
-1109 -1140 1141 0
1140 -1141 0
1109 -1141 0
-1110 -1141 1142 0
1141 -1142 0
1110 -1142 0
-1111 -1142 1143 0
1142 -1143 0
1111 -1143 0
-1112 -1143 1144 0
1143 -1144 0
1112 -1144 0
-1113 -1144 1145 0
1144 -1145 0
1113 -1145 0
-1114 -1145 1146 0
1145 -1146 0
1114 -1146 0
-1115 -1146 1147 0
1146 -1147 0
1115 -1147 0
-1116 -1147 1148 0
1147 -1148 0
1116 -1148 0
-1117 -1148 1149 0
1148 -1149 0
1117 -1149 0
-1118 -1149 1150 0
1149 -1150 0
1118 -1150 0
-1119 -1150 1151 0
1150 -1151 0
1119 -1151 0
-1120 -1151 1152 0
1151 -1152 0
1120 -1152 0
-1121 -1152 1153 0
1152 -1153 0
1121 -1153 0
-1122 -1153 1154 0
1153 -1154 0
1122 -1154 0
-1123 -1154 1155 0
1154 -1155 0
1123 -1155 0
-1124 -1155 1156 0
1155 -1156 0
1124 -1156 0
-1125 -1156 1157 0
1156 -1157 0
1125 -1157 0
-1126 -1157 1158 0
1157 -1158 0
1126 -1158 0
-1127 -1158 1159 0
1158 -1159 0
1127 -1159 0
-1128 -1159 1160 0
1159 -1160 0
1128 -1160 0
-1129 -1160 1161 0
1160 -1161 0
1129 -1161 0
-1130 -1161 1162 0
1161 -1162 0
1130 -1162 0
-1131 -1162 1163 0
1162 -1163 0
1131 -1163 0
-1132 -1163 1164 0
1163 -1164 0
1132 -1164 0
-1133 -1164 1165 0
1164 -1165 0
1133 -1165 0
-1134 -1165 1166 0
1165 -1166 0
1134 -1166 0
-1135 -1166 1167 0
1166 -1167 0
1135 -1167 0
-1136 -1167 1168 0
1167 -1168 0
1136 -1168 0
-1137 -1168 1169 0
1168 -1169 0
1137 -1169 0
-1105 1169 0
1105 -1169 0
1104 1105 0
-1104 -1105 0
-1071 -1104 1170 0
1071 -1170 0
1104 -1170 0
1171 1205 0
-1171 -1205 0
1172 1206 0
-1172 -1206 0
1173 1207 0
-1173 -1207 0
1174 1208 0
-1174 -1208 0
1175 1209 0
-1175 -1209 0
1176 1210 0
-1176 -1210 0
1177 1211 0
-1177 -1211 0
1178 1212 0
-1178 -1212 0
1179 1213 0
-1179 -1213 0
1180 1214 0
-1180 -1214 0
1181 1215 0
-1181 -1215 0
1182 1216 0
-1182 -1216 0
1183 1217 0
-1183 -1217 0
1184 1218 0
-1184 -1218 0
1185 1219 0
-1185 -1219 0
1186 1220 0
-1186 -1220 0
1187 1221 0
-1187 -1221 0
1188 1222 0
-1188 -1222 0
1189 1223 0
-1189 -1223 0
1190 1224 0
-1190 -1224 0
1191 1225 0
-1191 -1225 0
1192 1226 0
-1192 -1226 0
1193 1227 0
-1193 -1227 0
1194 1228 0
-1194 -1228 0
1195 1229 0
-1195 -1229 0
1196 1230 0
-1196 -1230 0
1197 1231 0
-1197 -1231 0
1198 1232 0
-1198 -1232 0
1199 1233 0
-1199 -1233 0
1200 1234 0
-1200 -1234 0
1201 1235 0
-1201 -1235 0
1202 1236 0
-1202 -1236 0
-1205 1237 0
1205 -1237 0
-1206 -1237 1238 0
1237 -1238 0
1206 -1238 0
-1207 -1238 1239 0
1238 -1239 0
1207 -1239 0
-1208 -1239 1240 0
1239 -1240 0
1208 -1240 0
-1209 -1240 1241 0
1240 -1241 0
1209 -1241 0
-1210 -1241 1242 0
1241 -1242 0
1210 -1242 0
-1211 -1242 1243 0
1242 -1243 0
1211 -1243 0
-1212 -1243 1244 0
1243 -1244 0
1212 -1244 0
-1213 -1244 1245 0
1244 -1245 0
1213 -1245 0
-1214 -1245 1246 0
1245 -1246 0
1214 -1246 0
-1215 -1246 1247 0
1246 -1247 0
1215 -1247 0
-1216 -1247 1248 0
1247 -1248 0
1216 -1248 0
-1217 -1248 1249 0
1248 -1249 0
1217 -1249 0
-1218 -1249 1250 0
1249 -1250 0
1218 -1250 0
-1219 -1250 1251 0
1250 -1251 0
1219 -1251 0
-1220 -1251 1252 0
1251 -1252 0
1220 -1252 0
-1221 -1252 1253 0
1252 -1253 0
1221 -1253 0
-1222 -1253 1254 0
1253 -1254 0
1222 -1254 0
-1223 -1254 1255 0
1254 -1255 0
1223 -1255 0
-1224 -1255 1256 0
1255 -1256 0
1224 -1256 0
-1225 -1256 1257 0
1256 -1257 0
1225 -1257 0
-1226 -1257 1258 0
1257 -1258 0
1226 -1258 0
-1227 -1258 1259 0
1258 -1259 0
1227 -1259 0
-1228 -1259 1260 0
1259 -1260 0
1228 -1260 0
-1229 -1260 1261 0
1260 -1261 0
1229 -1261 0
-1230 -1261 1262 0
1261 -1262 0
1230 -1262 0
-1231 -1262 1263 0
1262 -1263 0
1231 -1263 0
-1232 -1263 1264 0
1263 -1264 0
1232 -1264 0
-1233 -1264 1265 0
1264 -1265 0
1233 -1265 0
-1234 -1265 1266 0
1265 -1266 0
1234 -1266 0
-1235 -1266 1267 0
1266 -1267 0
1235 -1267 0
-1236 -1267 1268 0
1267 -1268 0
1236 -1268 0
-1204 1268 0
1204 -1268 0
1203 1204 0
-1203 -1204 0
1170 1269 0
-1203 1269 0
-1170 1203 -1269 0
905 1270 0
-1269 1270 0
-905 1269 -1270 0
